36955
12,26,37,71,102,121,216,283,372,390,439,560,616,647,716,830,1111,1143,1309,1457,1489,1514,1517,1521,1591,1610,1793,2119,2299,2330,2413,2571,2738,2799,2806,2818,2924,2926,2963,3025,3054,3079,3216,3219,3265,3361,3364,3382,3390,3409,3562,3584,3763,3778,3806,3882,3921,4026,4058,4131,4204,4212,4240,4424,4540,4600,4700,4867,4874,4975
